Geographic Exponential Decay
20 201 119 55 251 49 316 78 284 124 169 19 217 167 196 144 186 152 228 313 255
p edge 320 673
e 0 110 9.0
e 1 17 5.0
e 1 55 78.0
e 2 48 4.0
e 2 73 14.0
e 2 7 7.0
e 2 269 17.0
e 2 82 25.0
e 3 116 1.0
e 3 196 15.0
e 4 300 1.0
e 4 13 3.0
e 5 223 2.0
e 6 217 11.0
e 6 265 9.0
e 6 9 9.0
e 7 175 9.0
e 7 178 10.0
e 8 279 3.0
e 9 78 77.0
e 9 152 65.0
e 9 269 34.0
e 9 17 2.0
e 9 185 25.0
e 9 251 11.0
e 9 113 6.0
e 9 253 21.0
e 10 194 1.0
e 10 97 8.0
e 11 39 2.0
e 12 7 12.0
e 12 124 74.0
e 12 224 2.0
e 14 61 4.0
e 14 140 3.0
e 15 140 1.0
e 16 65 4.0
e 16 267 2.0
e 18 261 5.0
e 19 306 60.0
e 19 225 53.0
e 19 49 7.0
e 19 272 12.0
e 19 212 100.0
e 19 216 73.0
e 19 204 74.0
e 19 275 9.0
e 19 170 93.0
e 19 136 27.0
e 19 86 14.0
e 19 299 79.0
e 19 270 13.0
e 19 189 31.0
e 19 112 14.0
e 19 295 1.0
e 19 174 97.0
e 20 58 7.0
e 20 100 3.0
e 20 251 50.0
e 21 14 4.0
e 21 175 3.0
e 22 5 1.0
e 22 214 3.0
e 22 156 12.0
e 23 174 1.0
e 24 120 2.0
e 24 312 1.0
e 25 52 1.0
e 25 101 12.0
e 25 248 10.0
e 26 126 1.0
e 27 189 14.0
e 27 209 18.0
e 27 210 13.0
e 27 278 9.0
e 27 138 16.0
e 28 130 3.0
e 28 252 4.0
e 29 184 1.0
e 30 220 2.0
e 31 18 1.0
e 32 296 1.0
e 33 86 1.0
e 34 179 23.0
e 34 117 12.0
e 34 72 4.0
e 34 314 24.0
e 34 270 3.0
e 35 157 5.0
e 35 216 2.0
e 36 255 73.0
e 37 248 3.0
e 37 74 3.0
e 38 121 4.0
e 38 191 2.0
e 40 65 2.0
e 41 217 33.0
e 42 46 1.0
e 43 60 1.0
e 43 91 11.0
e 43 301 12.0
e 44 171 5.0
e 44 209 5.0
e 44 156 1.0
e 45 221 2.0
e 47 111 1.0
e 48 203 1.0
e 49 153 30.0
e 49 121 16.0
e 49 58 100.0
e 49 43 74.0
e 49 123 100.0
e 49 3 54.0
e 49 67 86.0
e 49 266 80.0
e 49 210 31.0
e 49 1 16.0
e 49 129 11.0
e 49 289 48.0
e 49 220 58.0
e 49 74 42.0
e 49 221 44.0
e 49 85 92.0
e 50 150 6.0
e 51 246 2.0
e 51 247 11.0
e 52 98 6.0
e 53 268 4.0
e 53 194 2.0
e 53 136 11.0
e 54 194 4.0
e 54 74 3.0
e 55 37 11.0
e 55 214 59.0
e 55 46 34.0
e 55 254 95.0
e 55 77 85.0
e 55 262 21.0
e 55 177 72.0
e 55 59 99.0
e 55 127 48.0
e 55 280 64.0
e 55 238 66.0
e 55 278 96.0
e 55 212 91.0
e 55 213 54.0
e 55 316 79.0
e 55 3 15.0
e 56 131 1.0
e 56 52 4.0
e 57 149 14.0
e 59 65 1.0
e 62 109 1.0
e 63 36 3.0
e 63 181 3.0
e 63 92 7.0
e 64 226 9.0
e 64 11 2.0
e 66 105 1.0
e 67 46 5.0
e 68 117 6.0
e 68 124 33.0
e 68 44 9.0
e 69 7 1.0
e 70 82 3.0
e 71 296 5.0
e 71 53 9.0
e 75 175 1.0
e 75 150 4.0
e 76 231 1.0
e 76 0 1.0
e 78 226 91.0
e 78 228 35.0
e 78 157 81.0
e 78 189 84.0
e 78 191 50.0
e 78 145 38.0
e 78 119 9.0
e 78 32 24.0
e 78 227 60.0
e 78 90 95.0
e 78 167 19.0
e 78 4 66.0
e 78 50 57.0
e 78 173 71.0
e 78 18 23.0
e 78 186 9.0
e 79 70 1.0
e 79 250 1.0
e 79 189 22.0
e 79 310 23.0
e 79 97 7.0
e 80 209 1.0
e 80 145 7.0
e 81 314 4.0
e 81 242 9.0
e 81 176 8.0
e 82 256 10.0
e 83 98 3.0
e 84 47 1.0
e 87 113 1.0
e 88 209 4.0
e 88 70 2.0
e 89 239 2.0
e 89 297 5.0
e 90 186 13.0
e 92 132 1.0
e 93 271 1.0
e 94 123 1.0
e 95 172 1.0
e 95 105 4.0
e 96 87 5.0
e 96 66 11.0
e 96 47 12.0
e 97 71 12.0
e 98 313 39.0
e 99 254 1.0
e 99 54 5.0
e 100 249 5.0
e 102 97 11.0
e 103 264 1.0
e 103 176 23.0
e 104 215 1.0
e 106 216 3.0
e 107 255 11.0
e 108 193 1.0
e 109 154 6.0
e 109 208 1.0
e 110 242 8.0
e 110 22 11.0
e 114 229 42.0
e 114 221 26.0
e 114 286 11.0
e 114 49 75.0
e 114 9 14.0
e 114 3 9.0
e 114 287 35.0
e 114 223 41.0
e 114 314 47.0
e 115 161 1.0
e 115 267 3.0
e 116 86 1.0
e 118 226 2.0
e 119 298 32.0
e 119 17 23.0
e 119 151 49.0
e 119 281 88.0
e 119 305 51.0
e 119 306 64.0
e 119 288 18.0
e 119 301 7.0
e 119 104 33.0
e 119 117 41.0
e 119 100 38.0
e 119 87 38.0
e 119 291 77.0
e 119 7 38.0
e 119 103 33.0
e 119 26 41.0
e 122 165 1.0
e 122 221 20.0
e 122 198 6.0
e 122 120 4.0
e 122 89 15.0
e 124 218 45.0
e 124 304 73.0
e 124 147 57.0
e 124 64 51.0
e 124 278 1.0
e 124 210 33.0
e 124 150 93.0
e 124 130 80.0
e 124 152 88.0
e 124 71 58.0
e 124 151 83.0
e 124 225 30.0
e 124 47 35.0
e 124 269 32.0
e 124 82 75.0
e 125 37 5.0
e 125 42 1.0
e 127 71 2.0
e 128 142 16.0
e 128 97 20.0
e 128 54 7.0
e 128 298 12.0
e 128 9 44.0
e 129 315 1.0
e 133 19 49.0
e 134 87 1.0
e 134 40 5.0
e 135 95 8.0
e 135 51 1.0
e 135 257 12.0
e 137 248 1.0
e 139 125 5.0
e 141 72 8.0
e 141 281 4.0
e 141 129 3.0
e 143 15 1.0
e 144 40 64.0
e 144 81 65.0
e 144 6 39.0
e 144 238 42.0
e 144 21 7.0
e 144 4 50.0
e 144 254 61.0
e 144 248 81.0
e 144 92 13.0
e 144 170 61.0
e 144 8 32.0
e 144 279 81.0
e 144 5 68.0
e 144 125 30.0
e 144 31 5.0
e 144 207 71.0
e 144 242 59.0
e 145 100 6.0
e 146 252 1.0
e 146 32 1.0
e 147 70 2.0
e 148 132 1.0
e 149 23 13.0
e 149 132 20.0
e 149 54 6.0
e 149 190 3.0
e 152 137 36.0
e 152 189 96.0
e 152 285 20.0
e 152 202 60.0
e 152 114 2.0
e 152 270 99.0
e 152 194 12.0
e 152 290 100.0
e 152 193 37.0
e 152 214 11.0
e 152 318 4.0
e 152 169 59.0
e 152 208 53.0
e 152 123 22.0
e 152 179 30.0
e 154 123 4.0
e 154 145 7.0
e 155 200 2.0
e 158 97 8.0
e 159 103 5.0
e 159 169 63.0
e 160 190 8.0
e 162 20 9.0
e 163 127 20.0
e 163 61 16.0
e 163 297 8.0
e 163 28 10.0
e 163 118 6.0
e 164 251 17.0
e 164 18 1.0
e 164 9 11.0
e 165 51 2.0
e 165 45 12.0
e 165 118 14.0
e 165 256 3.0
e 166 72 4.0
e 166 214 1.0
e 167 294 45.0
e 167 50 8.0
e 167 279 9.0
e 167 137 44.0
e 167 241 72.0
e 167 72 37.0
e 167 255 38.0
e 167 35 26.0
e 167 104 38.0
e 167 206 65.0
e 167 266 82.0
e 167 43 81.0
e 167 95 50.0
e 167 157 28.0
e 167 264 95.0
e 167 204 69.0
e 168 238 1.0
e 169 56 40.0
e 169 65 8.0
e 169 73 51.0
e 169 263 74.0
e 169 314 23.0
e 169 46 49.0
e 169 67 20.0
e 169 16 46.0
e 169 75 37.0
e 169 36 77.0
e 169 150 82.0
e 169 83 51.0
e 169 234 59.0
e 169 269 68.0
e 169 66 94.0
e 170 222 1.0
e 171 264 4.0
e 173 174 2.0
e 176 215 24.0
e 176 190 20.0
e 176 29 19.0
e 178 228 33.0
e 178 223 21.0
e 178 84 18.0
e 178 187 19.0
e 179 142 11.0
e 180 316 95.0
e 182 259 7.0
e 182 139 13.0
e 182 310 23.0
e 182 227 12.0
e 182 58 17.0
e 183 266 10.0
e 183 48 4.0
e 183 136 20.0
e 183 174 25.0
e 183 261 20.0
e 186 33 92.0
e 186 316 84.0
e 186 124 82.0
e 186 219 35.0
e 186 159 70.0
e 186 312 62.0
e 186 132 41.0
e 186 241 38.0
e 186 162 66.0
e 186 73 8.0
e 186 203 94.0
e 186 37 8.0
e 186 304 71.0
e 186 254 21.0
e 186 292 89.0
e 187 85 3.0
e 187 216 21.0
e 187 300 7.0
e 187 313 48.0
e 188 117 3.0
e 192 274 20.0
e 195 55 27.0
e 196 286 21.0
e 196 8 69.0
e 196 233 10.0
e 196 222 94.0
e 196 110 16.0
e 196 228 15.0
e 196 73 98.0
e 196 96 83.0
e 196 171 55.0
e 196 210 42.0
e 196 313 58.0
e 196 69 90.0
e 196 108 90.0
e 196 101 94.0
e 196 246 66.0
e 196 92 59.0
e 197 142 1.0
e 199 164 10.0
e 199 258 2.0
e 200 104 2.0
e 201 66 36.0
e 201 99 9.0
e 201 124 43.0
e 201 283 77.0
e 201 240 89.0
e 201 60 31.0
e 201 158 19.0
e 201 183 51.0
e 201 248 4.0
e 201 85 39.0
e 201 281 42.0
e 201 184 89.0
e 201 236 75.0
e 201 122 71.0
e 201 110 72.0
e 201 28 24.0
e 201 55 74.0
e 205 34 2.0
e 206 61 15.0
e 206 168 23.0
e 206 272 15.0
e 206 136 14.0
e 211 42 5.0
e 211 33 2.0
e 217 84 2.0
e 217 230 26.0
e 217 162 68.0
e 217 244 97.0
e 217 110 86.0
e 217 298 65.0
e 217 17 92.0
e 217 80 34.0
e 217 310 46.0
e 217 235 75.0
e 217 188 62.0
e 217 284 33.0
e 217 185 85.0
e 217 206 1.0
e 217 19 21.0
e 218 88 3.0
e 219 266 4.0
e 225 135 9.0
e 225 211 7.0
e 225 67 5.0
e 227 222 6.0
e 228 224 89.0
e 228 211 72.0
e 228 217 37.0
e 228 93 72.0
e 228 20 53.0
e 228 67 35.0
e 228 144 96.0
e 228 286 10.0
e 228 82 16.0
e 228 57 65.0
e 228 236 61.0
e 228 308 29.0
e 228 304 35.0
e 228 43 54.0
e 230 170 3.0
e 232 133 3.0
e 233 181 1.0
e 234 284 93.0
e 234 261 11.0
e 235 4 10.0
e 235 40 6.0
e 237 111 20.0
e 237 51 20.0
e 237 249 18.0
e 237 68 7.0
e 237 121 20.0
e 243 249 2.0
e 243 12 7.0
e 244 19 51.0
e 245 123 5.0
e 247 184 3.0
e 247 146 4.0
e 251 224 79.0
e 251 172 98.0
e 251 190 100.0
e 251 167 28.0
e 251 74 59.0
e 251 160 73.0
e 251 140 87.0
e 251 137 90.0
e 251 113 24.0
e 251 154 42.0
e 251 148 61.0
e 251 244 32.0
e 251 176 27.0
e 251 124 88.0
e 255 250 46.0
e 255 284 69.0
e 255 217 9.0
e 255 207 60.0
e 255 115 43.0
e 255 300 21.0
e 255 282 98.0
e 255 204 58.0
e 255 95 71.0
e 255 225 72.0
e 255 39 42.0
e 255 139 24.0
e 255 155 66.0
e 255 125 35.0
e 257 316 65.0
e 257 102 10.0
e 257 167 44.0
e 257 111 10.0
e 258 217 33.0
e 258 178 13.0
e 258 24 24.0
e 258 236 22.0
e 260 62 6.0
e 260 56 7.0
e 260 15 5.0
e 268 151 9.0
e 268 257 2.0
e 273 142 1.0
e 274 11 15.0
e 274 247 12.0
e 274 134 20.0
e 274 135 3.0
e 275 266 17.0
e 275 181 18.0
e 275 105 23.0
e 275 50 18.0
e 276 84 5.0
e 276 146 1.0
e 277 255 24.0
e 277 295 10.0
e 280 306 2.0
e 282 150 4.0
e 283 14 2.0
e 284 181 39.0
e 284 133 73.0
e 284 201 78.0
e 284 55 54.0
e 284 241 23.0
e 284 35 95.0
e 284 121 76.0
e 284 62 8.0
e 284 245 43.0
e 284 118 38.0
e 284 119 42.0
e 284 270 51.0
e 284 218 30.0
e 284 264 41.0
e 287 152 57.0
e 290 187 23.0
e 290 89 10.0
e 290 111 4.0
e 290 183 4.0
e 291 204 19.0
e 291 5 20.0
e 291 139 1.0
e 291 269 1.0
e 293 56 3.0
e 295 91 1.0
e 302 6 1.0
e 302 163 25.0
e 303 211 4.0
e 305 83 2.0
e 307 83 2.0
e 308 212 1.0
e 309 284 25.0
e 311 258 3.0
e 311 119 71.0
e 311 237 7.0
e 311 133 3.0
e 311 305 21.0
e 313 200 33.0
e 313 15 4.0
e 313 112 63.0
e 313 242 98.0
e 313 315 39.0
e 313 88 68.0
e 313 293 56.0
e 313 146 50.0
e 313 289 85.0
e 313 205 78.0
e 313 278 70.0
e 313 276 50.0
e 313 90 43.0
e 313 26 49.0
e 316 48 7.0
e 316 134 57.0
e 316 148 21.0
e 316 120 51.0
e 316 300 42.0
e 316 89 12.0
e 316 220 48.0
e 316 249 27.0
e 316 6 8.0
e 316 290 64.0
e 316 265 4.0
e 316 233 6.0
e 316 187 36.0
e 317 130 20.0
e 317 135 47.0
e 317 311 49.0
e 317 75 14.0
e 317 8 27.0
e 317 206 22.0
e 317 316 74.0
e 317 219 25.0
e 317 249 22.0
e 318 101 10.0
e 318 289 2.0
e 319 261 13.0
e 319 283 23.0
e 319 166 2.0
e 319 291 5.0
e 319 163 6.0
